\ENCODING=ISO-8859-1
\Problem name: OsiDefaultName

Minimize
 obj1: 79.33333492 x1 + 70.0000014 x2 - 56.6666678 x3 - 50.000001 x4
       - 12.00000024 x5 - 3.3333334 x6
Subject To
 c1: x1 - x3 >= 200
 c2: x2 - x4 >= 240
 c3: x5 + x6 <= 0
Bounds
 0 <= x5 <= 6000
End
